%chk=2-52_charged_pka.chk
%mem=2GB
%nproc=2
#P M062X/6-31+G(d,p) Opt Freq SCRF=(SMD, Solvent=Water)

2-52_charged_pka

-1 1
 C              
 C                  1            B1
 C                  2            B2    1            A1
 C                  3            B3    2            A2    1            D1    0
 C                  4            B4    3            A3    2            D2    0
 C                  2            B5    1            A4    3            D3    0
 O                  6            B6    2            A5    1            D4    0
 C                  6            B7    2            A6    1            D5    0
 C                  8            B8    6            A7    2            D6    0
 C                  9            B9    8            A8    6            D7    0
 C                 10           B10    9            A9    8            D8    0
 C                 11           B11   10           A10    9            D9    0
 C                 12           B12   11           A11   10           D10    0
 C                 13           B13   12           A12   11           D11    0
 C                 14           B14   13           A13   12           D12    0
 C                 15           B15   14           A14   13           D13    0
 C                 11           B16   10           A15    9           D14    0
 C                 17           B17   11           A16   10           D15    0
 C                 18           B18   17           A17   11           D16    0
 O                 19           B19   18           A18   17           D17    0
 O                 19           B20   18           A19   17           D18    0
 H                  1           B21    2           A20    6           D19    0
 H                  1           B22    2           A21    6           D20    0
 H                  3           B23    2           A22    1           D21    0
 H                  3           B24    2           A23    1           D22    0
 H                  5           B25    4           A24    3           D23    0
 H                  5           B26    4           A25    3           D24    0
 H                  7           B27    6           A26    2           D25    0
 H                  8           B28    6           A27    2           D26    0
 H                  8           B29    6           A28    2           D27    0
 H                  9           B30    8           A29    6           D28    0
 H                  9           B31    8           A30    6           D29    0
 H                 10           B32    9           A31    8           D30    0
 H                 12           B33   11           A32   10           D31    0
 H                 13           B34   12           A33   11           D32    0
 H                 14           B35   13           A34   12           D33    0
 H                 16           B36   15           A35   14           D34    0
 H                 16           B37   15           A36   14           D35    0
 H                 16           B38   15           A37   14           D36    0
 H                 18           B39   17           A38   11           D37    0

   B1             1.35520001
   B2             1.56232638
   B3             1.56303185
   B4             1.50966345
   B5             1.52865446
   B6             1.43000001
   B7             1.54596278
   B8             1.53312722
   B9             1.52250360
   B10            1.53670301
   B11            1.34362813
   B12            1.55080618
   B13            1.37666923
   B14            1.55096513
   B15            1.54000003
   B16            1.51122069
   B17            1.53900381
   B18            1.54000000
   B19            1.25840000
   B20            1.43000000
   B21            1.07000000
   B22            1.07000000
   B23            1.06999999
   B24            1.06999999
   B25            1.07000000
   B26            1.07000002
   B27            0.96000000
   B28            1.07000000
   B29            1.07000000
   B30            1.07000000
   B31            1.07000000
   B32            1.07000000
   B33            1.07000001
   B34            1.07000000
   B35            1.07000000
   B36            1.07000000
   B37            1.07000000
   B38            1.07000000
   B39            1.07000000
   A1           126.51932511
   A2           102.33235058
   A3           101.99576490
   A4           126.16001919
   A5           114.56040418
   A6           110.08934929
   A7           107.72744283
   A8           108.57930049
   A9           114.10353091
   A10          130.83437744
   A11          117.16333629
   A12          120.46000933
   A13          120.47417087
   A14          121.40319562
   A15          106.76340041
   A16          106.97373005
   A17          114.40111843
   A18          119.99999988
   A19          120.00000030
   A20          120.00000037
   A21          119.99999995
   A22          115.16919741
   A23          107.85295332
   A24          113.61070607
   A25          110.73326748
   A26          109.47122425
   A27          109.40619102
   A28          110.53287337
   A29          110.67893351
   A30          108.75617582
   A31          109.05736992
   A32          121.41833978
   A33          119.76999434
   A34          119.76291488
   A35          109.47122109
   A36          109.47122217
   A37          109.47121974
   A38          109.52143707
   D1          -176.67200319
   D2            31.59735865
   D3          -176.21331730
   D4            27.36712621
   D5           -94.54189958
   D6           -47.10534975
   D7           -54.51774463
   D8           170.85950860
   D9            33.68094644
   D10         -179.41180297
   D11            0.08106764
   D12           -0.09717596
   D13          179.96158056
   D14         -145.87474198
   D15           -0.57594958
   D16          148.65093764
   D17          -27.34662909
   D18          152.65337259
   D19         -178.10665852
   D20            1.89334256
   D21           65.56223857
   D22          -55.85769810
   D23         -172.35086962
   D24           65.85994951
   D25          176.35275526
   D26         -167.99758187
   D27           71.68481334
   D28         -176.12606631
   D29           63.73459648
   D30          -65.64112807
   D31            0.56454230
   D32         -179.93608292
   D33          179.90648266
   D34          149.98954769
   D35          -90.01045208
   D36           29.98954790
   D37          -89.79308084
