%chk=2-5_charged_pka.chk
%mem=2GB
%nproc=2
#P M062X/6-31+G(d,p) Opt Freq SCRF=(SMD, Solvent=Water)

2-5_charged_pka

+1 1
 C              
 C                  1            B1
 C                  2            B2    1            A1
 C                  3            B3    2            A2    1            D1    0
 C                  4            B4    3            A3    2            D2    0
 C                  2            B5    1            A4    3            D3    0
 O                  6            B6    2            A5    1            D4    0
 C                  6            B7    2            A6    1            D5    0
 C                  8            B8    6            A7    2            D6    0
 C                  4            B9    3            A8    2            D7    0
 C                 10           B10    4            A9    3            D8    0
 C                 11           B11   10           A10    4            D9    0
 C                 12           B12   11           A11   10           D10    0
 C                 13           B13   12           A12   11           D11    0
 C                 14           B14   13           A13   12           D12    0
 C                 15           B15   14           A14   13           D13    0
 C                 11           B16   10           A15    4           D14    0
 C                 17           B17   11           A16   10           D15    0
 N                 18           B18   17           A17   11           D16    0
 H                  1           B19    2           A18    6           D17    0
 H                  1           B20    2           A19    6           D18    0
 H                  3           B21    2           A20    1           D19    0
 H                  3           B22    2           A21    1           D20    0
 H                  5           B23    4           A22    3           D21    0
 H                  5           B24    4           A23    3           D22    0
 H                  7           B25    6           A24    2           D23    0
 H                  8           B26    6           A25    2           D24    0
 H                  8           B27    6           A26    2           D25    0
 H                  9           B28    8           A27    6           D26    0
 H                  9           B29    8           A28    6           D27    0
 H                 10           B30    4           A29    3           D28    0
 H                 12           B31   11           A30   10           D29    0
 H                 13           B32   12           A31   11           D30    0
 H                 14           B33   13           A32   12           D31    0
 H                 16           B34   15           A33   14           D32    0
 H                 16           B35   15           A34   14           D33    0
 H                 16           B36   15           A35   14           D34    0
 H                 18           B37   17           A36   11           D35    0
 H                 19           B38   18           A37   17           D36    0
 H                 19           B39   18           A38   17           D37    0
 H                 19           B40   18           A39   17           D38    0

   B1             1.35520000
   B2             1.56229528
   B3             1.56304510
   B4             1.50964532
   B5             1.52862437
   B6             1.43000002
   B7             1.54598612
   B8             1.53317488
   B9             1.53834107
   B10            1.53693551
   B11            1.34362987
   B12            1.55083241
   B13            1.37669251
   B14            1.55096336
   B15            1.54000000
   B16            1.51128490
   B17            1.53882837
   B18            1.46999999
   B19            1.07000000
   B20            1.06999999
   B21            1.06999999
   B22            1.06999999
   B23            1.06999998
   B24            1.07000000
   B25            0.96000001
   B26            1.06999999
   B27            1.06999997
   B28            1.07000000
   B29            1.07000000
   B30            1.07000000
   B31            1.06999999
   B32            1.06999999
   B33            1.07000001
   B34            1.07000000
   B35            1.07000000
   B36            1.06999997
   B37            1.07000000
   B38            0.99999999
   B39            0.99999999
   B40            0.99999999
   A1           126.52016768
   A2           102.33371247
   A3           101.99382547
   A4           126.16089205
   A5           114.55990853
   A6           110.08817965
   A7           107.73101515
   A8           110.09712316
   A9           101.44595456
   A10          130.83345182
   A11          117.16370152
   A12          120.46249839
   A13          120.47416585
   A14          121.40568741
   A15          106.77147483
   A16          106.94528055
   A17          114.43031136
   A18          120.00000082
   A19          119.99999951
   A20          115.16785255
   A21          107.85352637
   A22          113.61074584
   A23          110.73479780
   A24          109.47122054
   A25          109.40502487
   A26          110.53199785
   A27          110.67796741
   A28          108.75858817
   A29          111.42633675
   A30          121.41815666
   A31          119.76874953
   A32          119.76291687
   A33          109.47122041
   A34          109.47122015
   A35          109.47122156
   A36          109.48745171
   A37          109.47122000
   A38          109.47122126
   A39          109.47122060
   D1          -176.67128517
   D2            31.59923288
   D3          -176.21388124
   D4            27.36454448
   D5           -94.54427831
   D6           -47.11137568
   D7           -85.64920394
   D8           -76.14996766
   D9           152.64527815
   D10         -179.43253261
   D11            0.08063782
   D12           -0.08971918
   D13          179.96045857
   D14          -26.91637496
   D15           -0.54508383
   D16          148.70976775
   D17         -178.10695043
   D18            1.89306752
   D19           65.56316553
   D20          -55.85650929
   D21         -172.35196741
   D22           65.85824324
   D23          176.35323257
   D24         -168.00272478
   D25           71.68032689
   D26         -176.12479909
   D27           63.73538153
   D28          166.78300351
   D29            0.54536146
   D30         -179.93575596
   D31          179.91325772
   D32          149.99029085
   D33          -90.00970760
   D34           29.99029120
   D35          -89.78067975
   D36           62.59798860
   D37         -177.40201114
   D38          -57.40201103
 