%chk=3-17_charged_pka.chk
%mem=2GB
%nproc=2
#P M062X/6-31+G(d,p) Opt Freq SCRF=(SMD, Solvent=Water)

3-17_charged_pka

+1 1
 C              
 C                  1            B1
 C                  2            B2    1            A1
 C                  3            B3    2            A2    1            D1    0
 C                  4            B4    3            A3    2            D2    0
 C                  2            B5    1            A4    3            D3    0
 O                  6            B6    2            A5    1            D4    0
 C                  6            B7    2            A6    1            D5    0
 C                  8            B8    6            A7    2            D6    0
 C                  9            B9    8            A8    6            D7    0
 C                 10           B10    9            A9    8            D8    0
 C                 11           B11   10           A10    9            D9    0
 C                 12           B12   11           A11   10           D10    0
 C                 13           B13   12           A12   11           D11    0
 C                 14           B14   13           A13   12           D12    0
 C                 15           B15   14           A14   13           D13    0
 C                 11           B16   10           A15    9           D14    0
 C                 17           B17   11           A16   10           D15    0
 N                 18           B18   17           A17   11           D16    0
 C                 19           B19   18           A18   17           D17    0
 H                  1           B20    2           A19    6           D18    0
 H                  1           B21    2           A20    6           D19    0
 H                  3           B22    2           A21    1           D20    0
 H                  3           B23    2           A22    1           D21    0
 H                  5           B24    4           A23    3           D22    0
 H                  5           B25    4           A24    3           D23    0
 H                  7           B26    6           A25    2           D24    0
 H                  8           B27    6           A26    2           D25    0
 H                  8           B28    6           A27    2           D26    0
 H                  9           B29    8           A28    6           D27    0
 H                  9           B30    8           A29    6           D28    0
 H                 10           B31    9           A30    8           D29    0
 H                 12           B32   11           A31   10           D30    0
 H                 13           B33   12           A32   11           D31    0
 H                 14           B34   13           A33   12           D32    0
 H                 16           B35   15           A34   14           D33    0
 H                 16           B36   15           A35   14           D34    0
 H                 16           B37   15           A36   14           D35    0
 H                 18           B38   17           A37   11           D36    0
 H                 19           B39   18           A38   17           D37    0
 H                 19           B40   18           A39   17           D38    0
 H                 20           B41   19           A40   18           D39    0
 H                 20           B42   19           A41   18           D40    0
 H                 20           B43   19           A42   18           D41    0

   B1             1.35519999
   B2             1.55470836
   B3             1.55656805
   B4             1.52006003
   B5             1.53509357
   B6             1.43000000
   B7             1.54716632
   B8             1.54172506
   B9             1.51916154
   B10            1.53579741
   B11            1.34332137
   B12            1.55095341
   B13            1.37708567
   B14            1.55124797
   B15            1.53999999
   B16            1.51104037
   B17            1.54012574
   B18            1.46999999
   B19            1.47000000
   B20            1.07000000
   B21            1.07000000
   B22            1.06999999
   B23            1.06999999
   B24            1.07000001
   B25            1.07000000
   B26            0.96000000
   B27            1.07000000
   B28            1.07000000
   B29            1.07000001
   B30            1.07000001
   B31            1.06999999
   B32            1.06999999
   B33            1.07000000
   B34            1.07000001
   B35            1.07000001
   B36            1.07000004
   B37            1.07000002
   B38            1.06999999
   B39            1.00000000
   B40            0.99999999
   B41            1.07000000
   B42            1.07000002
   B43            1.06999998
   A1           126.79404634
   A2           102.35216878
   A3            99.30170438
   A4           126.75727491
   A5           115.70966991
   A6           106.59859695
   A7           107.33306637
   A8           108.64429087
   A9           114.95678691
   A10          131.07919141
   A11          117.09809050
   A12          120.46562195
   A13          120.49181646
   A14          121.42280483
   A15          106.43895355
   A16          106.82424522
   A17          114.44836529
   A18          109.47122164
   A19          119.99999935
   A20          120.00000027
   A21          114.03284993
   A22          108.89801701
   A23          114.05356173
   A24          110.32641982
   A25          109.47122130
   A26          109.77186587
   A27          110.38697239
   A28          110.79144766
   A29          108.60639057
   A30          108.44356970
   A31          121.45095757
   A32          119.76718803
   A33          119.75409294
   A34          109.47121994
   A35          109.47122093
   A36          109.47121978
   A37          109.54132885
   A38          109.47121995
   A39          109.47122063
   A40          109.47122009
   A41          109.47122089
   A42          109.47122092
   D1           165.44463499
   D2            42.18237667
   D3           179.51412103
   D4            40.05038871
   D5           -81.19785278
   D6           -44.24048139
   D7           -56.00807009
   D8           170.21253721
   D9            32.37271848
   D10         -179.60078235
   D11            0.04858844
   D12           -0.07575670
   D13          179.98084061
   D14         -147.35010323
   D15           -0.41883819
   D16          149.14504126
   D17         -177.32926320
   D18          179.75705489
   D19           -0.24294130
   D20           42.38829052
   D21          -78.86574752
   D22         -175.45001072
   D23           62.76015994
   D24          178.67217639
   D25         -165.81292572
   D26           73.79370686
   D27         -177.51318518
   D28           62.36156204
   D29          -66.46995355
   D30            0.38137343
   D31         -179.96337609
   D32          179.92815340
   D33          149.99196603
   D34          -90.00803422
   D35           29.99196651
   D36          -89.32020326
   D37           62.67073615
   D38          -57.32926391
   D39          180.00000000
   D40          -60.00000090
   D41           59.99999923
