%chk=3-45_charged_pka.chk
%mem=2GB
%nproc=2
#P M062X/6-31+G(d,p) Opt Freq SCRF=(SMD, Solvent=Water)

3-45_charged_pka

+1 1
 C              
 C                  1            B1
 C                  2            B2    1            A1
 C                  3            B3    2            A2    1            D1    0
 C                  4            B4    3            A3    2            D2    0
 C                  5            B5    4            A4    3            D3    0
 C                  6            B6    5            A5    4            D4    0
 C                  7            B7    6            A6    5            D5    0
 N                  8            B8    7            A7    6            D6    0
 C                  8            B9    7            A8    6            D7    0
 C                 10           B10    8            A9    7            D8    0
 C                 11           B11   10           A10    8            D9    0
 O                 12           B12   11           A11   10           D10    0
 C                 12           B13   11           A12   10           D11    0
 C                 14           B14   12           A13   11           D12    0
 O                 15           B15   14           A14   12           D13    0
 C                 14           B16   12           A15   11           D14    0
 C                 17           B17   14           A16   12           D15    0
 C                  6           B18    5           A17    4           D16    0
 C                 14           B19   12           A18   11           D17    0
 H                  1           B20    2           A19    3           D18    0
 H                  1           B21    2           A20    3           D19    0
 H                  1           B22    2           A21    3           D20    0
 H                  3           B23    2           A22    1           D21    0
 H                  4           B24    3           A23    2           D22    0
 H                  5           B25    4           A24    3           D23    0
 H                  8           B26    7           A25    6           D24    0
 H                  9           B27    8           A26    7           D25    0
 H                  9           B28    8           A27    7           D26    0
 H                  9           B29    8           A28    7           D27    0
 H                 11           B30   10           A29    8           D28    0
 H                 11           B31   10           A30    8           D29    0
 H                 15           B32   14           A31   12           D30    0
 H                 15           B33   14           A32   12           D31    0
 H                 16           B34   15           A33   14           D32    0
 H                 17           B35   14           A34   12           D33    0
 H                 17           B36   14           A35   12           D34    0
 H                 18           B37   17           A36   14           D35    0
 H                 18           B38   17           A37   14           D36    0
 H                 19           B39    6           A38    5           D37    0
 H                 20           B40   14           A39   12           D38    0
 H                 20           B41   14           A40   12           D39    0

   B1             1.54000000
   B2             1.36376034
   B3             1.55784091
   B4             1.36467699
   B5             1.53112300
   B6             1.33332470
   B7             1.52865645
   B8             1.47000000
   B9             1.55019223
   B10            1.53580084
   B11            1.49407023
   B12            1.25840000
   B13            1.51932251
   B14            1.54000000
   B15            1.43000000
   B16            1.54234998
   B17            1.51643310
   B18            1.54687443
   B19            1.60029002
   B20            1.07000000
   B21            1.07000000
   B22            1.07000000
   B23            1.07000000
   B24            1.07000000
   B25            1.07000000
   B26            1.07000000
   B27            1.00000000
   B28            1.00000000
   B29            1.00000000
   B30            1.07000000
   B31            1.07000000
   B32            1.07000000
   B33            1.07000000
   B34            0.96000000
   B35            1.07000000
   B36            1.07000000
   B37            1.07000000
   B38            1.07000000
   B39            1.07000000
   B40            1.07000000
   B41            1.07000000
   A1           121.05097145
   A2           120.34582394
   A3           120.43744336
   A4           118.07496208
   A5           121.29660965
   A6           109.08874243
   A7           114.75144456
   A8           103.06259271
   A9           111.03591069
   A10          103.64327957
   A11          125.47373478
   A12          109.03701922
   A13          111.73008012
   A14          109.47122063
   A15          108.75921035
   A16          108.10610409
   A17          128.26724528
   A18          101.81874626
   A19          109.47122063
   A20          109.47122063
   A21          109.47122063
   A22          119.82704690
   A23          119.78126686
   A24          120.96215712
   A25          107.85619101
   A26          109.47122063
   A27          109.47122063
   A28          109.47122063
   A29          112.74416268
   A30          109.45523427
   A31          109.47122063
   A32          109.47122063
   A33          109.47122063
   A34          108.29482329
   A35          111.34947916
   A36          110.27923863
   A37          104.05578342
   A38          113.08747888
   A39          111.06662802
   A40          114.54978351
   D1          -179.97934446
   D2            -0.63648761
   D3             0.32486278
   D4             0.79114349
   D5           178.27645395
   D6           148.03326556
   D7            25.70708132
   D8          -162.44554142
   D9          -172.62875422
   D10         -162.49696218
   D11           17.68657277
   D12          139.97338163
   D13           61.11774847
   D14         -101.26285389
   D15           92.90102966
   D16         -177.23120565
   D17           15.62667768
   D18           29.93758091
   D19          149.93758091
   D20          -90.06241909
   D21           -0.02951063
   D22          179.45496465
   D23         -179.53995285
   D24          -90.91517670
   D25           61.15847736
   D26         -178.84152264
   D27          -58.84152264
   D28           64.68948964
   D29          -56.34279905
   D30          -58.88225153
   D31         -178.88225153
   D32         -180.00000000
   D33          -32.49614087
   D34         -152.92189817
   D35         -169.58499196
   D36           71.78937873
   D37          -84.08679819
   D38           73.49374743
   D39         -164.24567365
