%chk=3-45_neutral_pka.chk
%mem=2GB
%nproc=2
#P M062X/6-31+G(d,p) Opt Freq SCRF=(SMD, Solvent=Water)

3-45_neutral_pka

0 1
 O              
 C                  1            B1
 C                  2            B2    1            A1
 C                  3            B3    2            A2    1            D1    0
 O                  4            B4    3            A3    2            D2    0
 C                  3            B5    2            A4    1            D3    0
 C                  6            B6    3            A5    2            D4    0
 C                  7            B7    6            A6    3            D5    0
 N                  8            B8    7            A7    6            D6    0
 C                  8            B9    7            A8    6            D7    0
 C                 10           B10    8            A9    7            D8    0
 C                 11           B11   10           A10    8            D9    0
 C                 11           B12   10           A11    8           D10    0
 C                 13           B13   11           A12   10           D11    0
 C                 14           B14   13           A13   11           D12    0
 C                 15           B15   14           A14   13           D13    0
 C                 16           B16   15           A15   14           D14    0
 C                 17           B17   16           A16   15           D15    0
 C                 18           B18   17           A17   16           D16    0
 C                  2           B19    1           A18    3           D17    0
 H                  4           B20    3           A19    2           D18    0
 H                  4           B21    3           A20    2           D19    0
 H                  5           B22    4           A21    3           D20    0
 H                  6           B23    3           A22    2           D21    0
 H                  6           B24    3           A23    2           D22    0
 H                  8           B25    7           A24    6           D23    0
 H                  9           B26    8           A25    7           D24    0
 H                  9           B27    8           A26    7           D25    0
 H                 12           B28   11           A27   10           D26    0
 H                 12           B29   11           A28   10           D27    0
 H                 12           B30   11           A29   10           D28    0
 H                 13           B31   11           A30   10           D29    0
 H                 14           B32   13           A31   11           D30    0
 H                 15           B33   14           A32   13           D31    0
 H                 17           B34   16           A33   15           D32    0
 H                 18           B35   17           A34   16           D33    0
 H                 18           B36   17           A35   16           D34    0
 H                 19           B37   18           A36   17           D35    0
 H                 19           B38   18           A37   17           D36    0
 H                 20           B39    2           A38    1           D37    0
 H                 20           B40    2           A39    1           D38    0

   B1             1.25840000
   B2             1.51931630
   B3             1.54000000
   B4             1.43000000
   B5             1.60031349
   B6             1.58087518
   B7             1.55030924
   B8             1.47000000
   B9             1.52874251
   B10            1.53017404
   B11            1.54000000
   B12            1.36375964
   B13            1.55782839
   B14            1.36466454
   B15            1.53112350
   B16            1.54674849
   B17            1.52458555
   B18            1.51640917
   B19            1.49406421
   B20            1.07000000
   B21            1.07000000
   B22            0.96000000
   B23            1.07000000
   B24            1.07000000
   B25            1.07000000
   B26            1.00000000
   B27            1.00000000
   B28            1.07000000
   B29            1.07000000
   B30            1.07000000
   B31            1.07000000
   B32            1.07000000
   B33            1.07000000
   B34            1.07000000
   B35            1.07000000
   B36            1.07000000
   B37            1.07000000
   B38            1.07000000
   B39            1.07000000
   B40            1.07000000
   A1           125.48874081
   A2           111.73042320
   A3           109.47122063
   A4           101.81917545
   A5            97.69121017
   A6           121.25428364
   A7           112.22247924
   A8           103.03321069
   A9           128.97131335
   A10          121.05020538
   A11          117.89978166
   A12          120.34576396
   A13          120.43619611
   A14          118.07487847
   A15          128.26682938
   A16          104.63095481
   A17          117.16933855
   A18          125.47351542
   A19          109.47122063
   A20          109.47122063
   A21          109.47122063
   A22          114.55056891
   A23          111.06571492
   A24          110.28919198
   A25          109.47122063
   A26          109.47122063
   A27          109.47122063
   A28          109.47122063
   A29          109.47122063
   A30          119.82707633
   A31          119.78189054
   A32          120.96219512
   A33          113.09276361
   A34          104.42348970
   A35          109.92077081
   A36          115.16249147
   A37          104.44354107
   A38          109.09956856
   A39          113.12497540
   D1           -39.84335093
   D2            61.11702286
   D3          -164.18988829
   D4           -41.31279328
   D5           173.60967150
   D6           -42.16044077
   D7            81.79415142
   D8          -154.43048262
   D9             1.28866702
   D10         -178.58959968
   D11           -0.10017556
   D12           -0.64048415
   D13            0.32542580
   D14         -177.22059267
   D15           41.04255193
   D16          154.42285727
   D17         -179.78704377
   D18          -58.88297714
   D19         -178.88297714
   D20          180.00000000
   D21         -164.24478830
   D22           73.49472809
   D23         -163.29042128
   D24          -61.66008255
   D25           58.33991745
   D26         -149.93721162
   D27          -29.93721162
   D28           90.06278838
   D29          179.84926469
   D30          179.45140036
   D31         -179.53861396
   D32          -84.08663351
   D33           39.97543545
   D34          -78.67935241
   D35           78.36695492
   D36         -161.53120003
   D37           80.96583176
   D38          -40.06856675
