%chk=3-46_charged_pka.chk
%mem=2GB
%nproc=2
#P M062X/6-31+G(d,p) Opt Freq SCRF=(SMD, Solvent=Water)

3-46_charged_pka

+1 1
 C              
 N                  1            B1
 C                  2            B2    1            A1
 C                  3            B3    2            A2    1            D1    0
 C                  4            B4    3            A3    2            D2    0
 C                  5            B5    4            A4    3            D3    0
 C                  6            B6    5            A5    4            D4    0
 C                  7            B7    6            A6    5            D5    0
 C                  4            B8    3            A7    2            D6    0
 C                  9            B9    4            A8    3            D7    0
 C                  5           B10    4            A9    3            D8    0
 C                 11           B11    5           A10    4            D9    0
 C                 12           B12   11           A11    5           D10    0
 C                 13           B13   12           A12   11           D11    0
 C                 14           B14   13           A13   12           D12    0
 O                 15           B15   14           A14   13           D13    0
 C                 14           B16   13           A15   12           D14    0
 C                 17           B17   14           A16   13           D15    0
 C                 18           B18   17           A17   14           D16    0
 C                 19           B19   18           A18   17           D17    0
 O                 20           B20   19           A19   18           D18    0
 H                  1           B21    2           A20    3           D19    0
 H                  1           B22    2           A21    3           D20    0
 H                  1           B23    2           A22    3           D21    0
 H                  2           B24    1           A23    3           D22    0
 H                  2           B25    1           A24    3           D23    0
 H                  3           B26    2           A25    1           D24    0
 H                  4           B27    3           A26    2           D25    0
 H                  5           B28    4           A27    3           D26    0
 H                  6           B29    5           A28    4           D27    0
 H                  6           B30    5           A29    4           D28    0
 H                  7           B31    6           A30    5           D29    0
 H                  7           B32    6           A31    5           D30    0
 H                  8           B33    7           A32    6           D31    0
 H                  8           B34    7           A33    6           D32    0
 H                  9           B35    4           A34    3           D33    0
 H                 10           B36    9           A35    4           D34    0
 H                 10           B37    9           A36    4           D35    0
 H                 10           B38    9           A37    4           D36    0
 H                 11           B39    5           A38    4           D37    0
 H                 12           B40   11           A39    5           D38    0
 H                 12           B41   11           A40    5           D39    0
 H                 13           B42   12           A41   11           D40    0
 H                 13           B43   12           A42   11           D41    0
 H                 15           B44   14           A43   13           D42    0
 H                 15           B45   14           A44   13           D43    0
 H                 16           B46   15           A45   14           D44    0
 H                 17           B47   14           A46   13           D45    0
 H                 17           B48   14           A47   13           D46    0
 H                 19           B49   18           A48   17           D47    0
 H                 19           B50   18           A49   17           D48    0

   B1             1.46998360
   B2             1.47001256
   B3             1.55645399
   B4             1.49041043
   B5             1.52681163
   B6             1.55312782
   B7             1.56411216
   B8             1.52561386
   B9             1.53999635
   B10            1.54883215
   B11            1.53327264
   B12            1.52144018
   B13            1.53474236
   B14            1.54001255
   B15            1.43000477
   B16            1.52425891
   B17            1.53361424
   B18            1.54382008
   B19            1.56843769
   B20            1.25840345
   B21            1.07000199
   B22            1.06999996
   B23            1.06999194
   B24            1.00000437
   B25            1.00000166
   B26            1.07000073
   B27            1.06999606
   B28            1.06999941
   B29            1.07000395
   B30            1.06999818
   B31            1.06999785
   B32            1.07000763
   B33            1.07000529
   B34            1.06999968
   B35            1.07000396
   B36            1.07000123
   B37            1.06999867
   B38            1.06999220
   B39            1.06999573
   B40            1.07000024
   B41            1.07000312
   B42            1.06999941
   B43            1.07000061
   B44            1.06999980
   B45            1.07000606
   B46            0.96000009
   B47            1.06999490
   B48            1.06999750
   B49            1.07000155
   B50            1.07000229
   A1           109.47411530
   A2           116.79966693
   A3           104.13447443
   A4           110.49928891
   A5           107.35261550
   A6           109.51104462
   A7           116.30092172
   A8           110.63844744
   A9            96.59346716
   A10          119.03777545
   A11          111.19435347
   A12          107.84125154
   A13          107.84748206
   A14          109.46995086
   A15          109.24211610
   A16          101.44664244
   A17           99.39075599
   A18          101.25359989
   A19          126.48395678
   A20          109.47048614
   A21          109.47069482
   A22          109.47195635
   A23          109.47151711
   A24          109.46941627
   A25          108.57320239
   A26          107.76306616
   A27          113.81032864
   A28          110.02434284
   A29          110.12952368
   A30          109.39850526
   A31          109.52114129
   A32          108.75332010
   A33          109.70365153
   A34          109.55288462
   A35          109.47140580
   A36          109.47063293
   A37          109.47179266
   A38          110.23604457
   A39          110.33107267
   A40          107.59314446
   A41          111.45860366
   A42          108.41222718
   A43          109.47158162
   A44          109.47204852
   A45          109.47250708
   A46          112.59449450
   A47          110.90512085
   A48          113.58011789
   A49          109.95361139
   D1          -177.25100762
   D2            97.37382167
   D3           171.24304262
   D4            60.27469487
   D5           -60.17178253
   D6           -28.26451603
   D7           -61.09676997
   D8            48.74528653
   D9           178.55972684
   D10           62.06681144
   D11           51.09856788
   D12          170.30366492
   D13           59.17928823
   D14          -66.35240981
   D15           73.42779877
   D16           54.87975884
   D17          -43.06508251
   D18         -162.95575464
   D19         -179.99674371
   D20          -59.99741586
   D21           60.00326688
   D22         -120.00174323
   D23          119.99852399
   D24           61.96520225
   D25         -150.72836819
   D26          -68.08228610
   D27          -58.61964052
   D28         -178.99664585
   D29          179.95899722
   D30           59.96608062
   D31          -59.59599359
   D32         -179.44918919
   D33           59.25763293
   D34          -59.33504221
   D35           60.66459884
   D36         -179.33585114
   D37           56.78660156
   D38          -60.28475604
   D39         -179.96231661
   D40          -68.45518553
   D41          171.25487111
   D42          -60.81972693
   D43          179.18018776
   D44         -179.99445493
   D45          -49.05392334
   D46         -170.56004521
   D47         -166.27808030
   D48           72.22087016
