%chk=4-3_charged_pka.chk
%mem=2GB
%nproc=2
#P M062X/6-31+G(d,p) Opt Freq SCRF=(SMD, Solvent=Water)

4-3_charged_pka

+1 1
 C              
 C                  1            B1
 C                  2            B2    1            A1
 C                  3            B3    2            A2    1            D1    0
 C                  4            B4    3            A3    2            D2    0
 C                  2            B5    1            A4    3            D3    0
 O                  6            B6    2            A5    1            D4    0
 C                  6            B7    2            A6    1            D5    0
 C                  8            B8    6            A7    2            D6    0
 C                  9            B9    8            A8    6            D7    0
 C                 10           B10    9            A9    8            D8    0
 C                 11           B11   10           A10    9            D9    0
 C                 12           B12   11           A11   10           D10    0
 C                 13           B13   12           A12   11           D11    0
 C                 14           B14   13           A13   12           D12    0
 C                 15           B15   14           A14   13           D13    0
 C                 11           B16   10           A15    9           D14    0
 C                 17           B17   11           A16   10           D15    0
 C                 18           B18   17           A17   11           D16    0
 C                 19           B19   18           A18   17           D17    0
 N                 20           B20   19           A19   18           D18    0
 H                  1           B21    2           A20    6           D19    0
 H                  1           B22    2           A21    6           D20    0
 H                  3           B23    2           A22    1           D21    0
 H                  3           B24    2           A23    1           D22    0
 H                  5           B25    4           A24    3           D23    0
 H                  5           B26    4           A25    3           D24    0
 H                  7           B27    6           A26    2           D25    0
 H                  8           B28    6           A27    2           D26    0
 H                  8           B29    6           A28    2           D27    0
 H                  9           B30    8           A29    6           D28    0
 H                  9           B31    8           A30    6           D29    0
 H                 10           B32    9           A31    8           D30    0
 H                 12           B33   11           A32   10           D31    0
 H                 13           B34   12           A33   11           D32    0
 H                 14           B35   13           A34   12           D33    0
 H                 16           B36   15           A35   14           D34    0
 H                 16           B37   15           A36   14           D35    0
 H                 16           B38   15           A37   14           D36    0
 H                 18           B39   17           A38   11           D37    0
 H                 19           B40   18           A39   17           D38    0
 H                 19           B41   18           A40   17           D39    0
 H                 20           B42   19           A41   18           D40    0
 H                 20           B43   19           A42   18           D41    0
 H                 21           B44   20           A43   19           D42    0
 H                 21           B45   20           A44   19           D43    0
 H                 21           B46   20           A45   19           D44    0

   B1             1.35519999
   B2             1.55468539
   B3             1.55658931
   B4             1.51999763
   B5             1.53505253
   B6             1.43000001
   B7             1.54728740
   B8             1.54183794
   B9             1.51917223
   B10            1.53655335
   B11            1.34331335
   B12            1.55104760
   B13            1.37718236
   B14            1.55125521
   B15            1.54000001
   B16            1.51131148
   B17            1.53958898
   B18            1.53999999
   B19            1.54000001
   B20            1.46999997
   B21            1.07000002
   B22            1.07000000
   B23            1.07000003
   B24            1.07000000
   B25            1.07000001
   B26            1.07000001
   B27            0.96000001
   B28            1.06999999
   B29            1.07000000
   B30            1.07000002
   B31            1.07000002
   B32            1.07000001
   B33            1.07000000
   B34            1.07000001
   B35            1.07000001
   B36            1.07000001
   B37            1.07000002
   B38            1.07000004
   B39            1.07000000
   B40            1.07000002
   B41            1.07000003
   B42            1.06999999
   B43            1.06999998
   B44            1.00000000
   B45            0.99999998
   B46            1.00000000
   A1           126.79667451
   A2           102.35152608
   A3            99.29476901
   A4           126.75983018
   A5           115.70958325
   A6           106.59761099
   A7           107.33738485
   A8           108.64567787
   A9           114.96377777
   A10          131.08498172
   A11          117.09681801
   A12          120.47463342
   A13          120.49310646
   A14          121.43176644
   A15          106.45425133
   A16          106.72597960
   A17          109.77523875
   A18          109.47122051
   A19          109.47122108
   A20          120.00000167
   A21          119.99999767
   A22          114.03082915
   A23          108.90052860
   A24          114.05246405
   A25          110.33152966
   A26          109.47122402
   A27          109.77162205
   A28          110.38471749
   A29          110.79487914
   A30          108.60208398
   A31          108.44507232
   A32          121.45159551
   A33          119.76268229
   A34          119.75344783
   A35          109.47121907
   A36          109.47122086
   A37          109.47122134
   A38          114.13830984
   A39          109.47121975
   A40          109.47122052
   A41          109.47122071
   A42          109.47122115
   A43          109.47122081
   A44          109.47121921
   A45          109.47122123
   D1           165.44229611
   D2            42.19399420
   D3           179.51303518
   D4            40.04397538
   D5           -81.20672645
   D6           -44.23381535
   D7           -56.01258209
   D8           170.17746597
   D9            32.39005260
   D10         -179.54483727
   D11            0.05135621
   D12           -0.09616073
   D13          179.98021211
   D14         -147.31698058
   D15           -0.48853628
   D16          -89.69560370
   D17          -64.67923914
   D18         -180.00000000
   D19          179.75651464
   D20           -0.24347353
   D21           42.38780341
   D22          -78.86654900
   D23         -175.45689415
   D24           62.75162093
   D25          178.67168902
   D26         -165.80835314
   D27           73.79906415
   D28         -177.52002514
   D29           62.35507612
   D30          -66.49184030
   D31            0.43325152
   D32         -179.96283527
   D33          179.90928325
   D34         -150.00994586
   D35          -30.00994666
   D36           89.99005438
   D37          148.86491864
   D38          175.32076130
   D39           55.32076062
   D40           60.00000194
   D41          -59.99999833
   D42          180.00000000
   D43          -60.00000163
   D44           59.99999850
