%chk=4-4_charged_pka.chk
%mem=2GB
%nproc=2
#P M062X/6-31+G(d,p) Opt Freq SCRF=(SMD, Solvent=Water)

4-4_charged_pka

+1 1
 C              
 C                  1            B1
 C                  2            B2    1            A1
 C                  3            B3    2            A2    1            D1    0
 C                  4            B4    3            A3    2            D2    0
 C                  5            B5    4            A4    3            D3    0
 C                  6            B6    5            A5    4            D4    0
 C                  7            B7    6            A6    5            D5    0
 C                  8            B8    7            A7    6            D6    0
 N                  9            B9    8            A8    7            D7    0
 C                  8           B10    7            A9    6            D8    0
 C                 11           B11    8           A10    7            D9    0
 C                 12           B12   11           A11    8           D10    0
 C                 13           B13   12           A12   11           D11    0
 C                 13           B14   12           A13   11           D12    0
 O                 15           B15   13           A14   12           D13    0
 C                 15           B16   13           A15   12           D14    0
 C                 17           B17   15           A16   13           D15    0
 C                  6           B18    5           A17    4           D16    0
 C                 11           B19    8           A18    7           D17    0
 H                  1           B20    2           A19    3           D18    0
 H                  1           B21    2           A20    3           D19    0
 H                  1           B22    2           A21    3           D20    0
 H                  3           B23    2           A22    1           D21    0
 H                  4           B24    3           A23    2           D22    0
 H                  5           B25    4           A24    3           D23    0
 H                  8           B26    7           A25    6           D24    0
 H                  9           B27    8           A26    7           D25    0
 H                  9           B28    8           A27    7           D26    0
 H                 10           B29    9           A28    8           D27    0
 H                 10           B30    9           A29    8           D28    0
 H                 10           B31    9           A30    8           D29    0
 H                 12           B32   11           A31    8           D30    0
 H                 12           B33   11           A32    8           D31    0
 H                 13           B34   12           A33   11           D32    0
 H                 14           B35   13           A34   12           D33    0
 H                 14           B36   13           A35   12           D34    0
 H                 14           B37   13           A36   12           D35    0
 H                 16           B38   15           A37   13           D36    0
 H                 17           B39   15           A38   13           D37    0
 H                 17           B40   15           A39   13           D38    0
 H                 18           B41   17           A40   15           D39    0
 H                 18           B42   17           A41   15           D40    0
 H                 19           B43    6           A42    5           D41    0
 H                 20           B44   11           A43    8           D42    0
 H                 20           B45   11           A44    8           D43    0

   B1             1.53999998
   B2             1.36622971
   B3             1.56145229
   B4             1.36599772
   B5             1.52859626
   B6             1.34351503
   B7             1.54524998
   B8             1.54000000
   B9             1.46999998
   B10            1.53475976
   B11            1.53415156
   B12            1.57147274
   B13            1.53999999
   B14            1.54800816
   B15            1.43000001
   B16            1.56209512
   B17            1.53585296
   B18            1.54085661
   B19            1.54775406
   B20            1.07000001
   B21            1.07000000
   B22            1.07000000
   B23            1.07000000
   B24            1.07000000
   B25            1.07000000
   B26            1.07000000
   B27            1.06999999
   B28            1.07000000
   B29            0.99999999
   B30            1.00000004
   B31            0.99999997
   B32            1.07000000
   B33            1.06999998
   B34            1.07000001
   B35            1.07000000
   B36            1.07000000
   B37            1.07000001
   B38            0.96000001
   B39            1.07000002
   B40            1.06999999
   B41            1.06999999
   B42            1.07000000
   B43            1.07000003
   B44            1.06999998
   B45            1.07000001
   A1           121.14423831
   A2           120.59221818
   A3           120.56888215
   A4           117.66726266
   A5           121.80943166
   A6           108.45223582
   A7           109.78930629
   A8           109.47122086
   A9           100.37812096
   A10          113.02081916
   A11          105.17276843
   A12          106.05365473
   A13          102.47190198
   A14          115.13543077
   A15          106.42002479
   A16          109.11337801
   A17          130.08272235
   A18          119.94913865
   A19          109.47122174
   A20          109.47121860
   A21          109.47122066
   A22          119.70389012
   A23          119.71555935
   A24          121.16636270
   A25          114.42123096
   A26          109.47121985
   A27          109.47122181
   A28          109.47122058
   A29          109.47121926
   A30          109.47122155
   A31          103.97598597
   A32          117.00322030
   A33          116.72931221
   A34          109.47122008
   A35          109.47122011
   A36          109.47122135
   A37          109.47122114
   A38          109.57601922
   A39          109.55454919
   A40          111.10770914
   A41          108.82862455
   A42          109.55630850
   A43          113.84217541
   A44          111.13780780
   D1          -180.00000000
   D2            -0.08196338
   D3             0.03777448
   D4             0.11246966
   D5           179.78946657
   D6           -89.24925904
   D7           175.04968200
   D8            28.58314391
   D9            78.40562306
   D10          171.73315365
   D11         -140.03582187
   D12          -16.77121963
   D13         -144.79567495
   D14           96.47451034
   D15          -43.46851354
   D16         -179.67196115
   D17         -169.05823304
   D18          -30.00780685
   D19           89.99219352
   D20         -150.00780692
   D21           -0.00614556
   D22          179.92943667
   D23         -179.94530860
   D24          149.21690223
   D25           55.04968218
   D26          -64.95031814
   D27          180.00000000
   D28          -60.00000084
   D29           60.00000010
   D30           58.39002703
   D31          -61.82159572
   D32           98.66435443
   D33           55.74689795
   D34          175.74689846
   D35          -64.25310152
   D36         -179.56336882
   D37         -165.69323497
   D38           74.23254852
   D39         -179.26105973
   D40           60.44623318
   D41          -90.84607611
   D42           61.82370400
   D43          -60.21013865
