%chk=4-4_neutral_pka.chk
%mem=2GB
%nproc=2
#P M062X/6-31+G(d,p) Opt Freq SCRF=(SMD, Solvent=Water)

4-4_neutral_pka

0 1
 O              
 C                  1            B1
 C                  2            B2    1            A1
 C                  3            B3    2            A2    1            D1    0
 C                  3            B4    2            A3    1            D2    0
 C                  5            B5    3            A4    2            D3    0
 C                  6            B6    5            A5    3            D4    0
 C                  7            B7    6            A6    5            D5    0
 N                  8            B8    7            A7    6            D6    0
 C                  7            B9    6            A8    5            D7    0
 C                 10           B10    7            A9    6            D8    0
 C                 11           B11   10           A10    7            D9    0
 C                 11           B12   10           A11    7           D10    0
 C                 13           B13   11           A12   10           D11    0
 C                 14           B14   13           A13   11           D12    0
 C                 15           B15   14           A14   13           D13    0
 C                 16           B16   15           A15   14           D14    0
 C                 17           B17   16           A16   15           D15    0
 C                 18           B18   17           A17   16           D16    0
 C                  6           B19    5           A18    3           D17    0
 H                  1           B20    2           A19   20           D18    0
 H                  3           B21    2           A20    1           D19    0
 H                  4           B22    3           A21    2           D20    0
 H                  4           B23    3           A22    2           D21    0
 H                  4           B24    3           A23    2           D22    0
 H                  5           B25    3           A24    2           D23    0
 H                  5           B26    3           A25    2           D24    0
 H                  7           B27    6           A26    5           D25    0
 H                  8           B28    7           A27    6           D26    0
 H                  8           B29    7           A28    6           D27    0
 H                  9           B30    8           A29    7           D28    0
 H                  9           B31    8           A30    7           D29    0
 H                 12           B32   11           A31   10           D30    0
 H                 12           B33   11           A32   10           D31    0
 H                 12           B34   11           A33   10           D32    0
 H                 13           B35   11           A34   10           D33    0
 H                 14           B36   13           A35   11           D34    0
 H                 15           B37   14           A36   13           D35    0
 H                 17           B38   16           A37   15           D36    0
 H                 18           B39   17           A38   16           D37    0
 H                 18           B40   17           A39   16           D38    0
 H                 19           B41   18           A40   17           D39    0
 H                 19           B42   18           A41   17           D40    0
 H                 20           B43    6           A42    5           D41    0
 H                 20           B44    6           A43    5           D42    0

   B1             1.43000000
   B2             1.54800815
   B3             1.54000000
   B4             1.57147272
   B5             1.53415156
   B6             1.53475978
   B7             1.54000001
   B8             1.47000000
   B9             1.54524996
   B10            1.52883940
   B11            1.54000001
   B12            1.36622972
   B13            1.56145230
   B14            1.36599772
   B15            1.52859624
   B16            1.54085661
   B17            1.49699245
   B18            1.53585298
   B19            1.54775408
   B20            0.95999999
   B21            1.07000000
   B22            1.06999999
   B23            1.07000003
   B24            1.07000002
   B25            1.06999999
   B26            1.07000001
   B27            1.06999999
   B28            1.06999999
   B29            1.07000000
   B30            1.00000003
   B31            1.00000003
   B32            1.07000000
   B33            1.07000000
   B34            1.07000000
   B35            1.07000001
   B36            1.07000000
   B37            1.06999999
   B38            1.07000000
   B39            1.06999999
   B40            1.07000000
   B41            1.07000000
   B42            1.07000000
   B43            1.07000001
   B44            1.07000000
   A1           115.13542936
   A2           117.06211544
   A3           102.47190263
   A4           105.17276806
   A5           113.02081905
   A6           111.78578678
   A7           109.47122190
   A8           100.37812161
   A9           129.89739603
   A10          121.14424147
   A11          117.71151787
   A12          120.59221755
   A13          120.56888235
   A14          117.66726332
   A15          130.08272195
   A16          115.77560901
   A17          107.71108292
   A18           96.33892581
   A19          109.47122187
   A20          106.10594917
   A21          109.47122080
   A22          109.47122075
   A23          109.47121984
   A24          113.07927314
   A25          107.93220832
   A26          112.45082433
   A27          109.47122058
   A28          109.47122047
   A29          109.47122053
   A30          109.47121932
   A31          109.47122137
   A32          109.47122050
   A33          109.47122048
   A34          119.70389043
   A35          119.71555955
   A36          121.16636343
   A37          109.55630889
   A38          109.47177972
   A39          110.46601065
   A40          111.40826054
   A41          107.71626562
   A42          111.13780713
   A43          113.84217749
   D1           -29.26201601
   D2          -144.79567238
   D3           -16.77122090
   D4           171.73315490
   D5          -165.24363368
   D6            64.56321957
   D7            78.40562359
   D8          -151.41017256
   D9             0.14300692
   D10         -179.84189773
   D11           -0.01496342
   D12           -0.08196515
   D13            0.03777551
   D14         -179.67196112
   D15           32.10618403
   D16          169.69769684
   D17           45.36529708
   D18         -179.11261700
   D19           92.29368546
   D20          -57.79173570
   D21           62.20826412
   D22         -177.79173407
   D23         -145.59458112
   D24           93.76341011
   D25          -43.63107492
   D26          -55.43677980
   D27         -175.43678004
   D28           60.00000247
   D29         -180.00000000
   D30          150.00780440
   D31          -89.99219523
   D32           30.00780451
   D33          179.97875955
   D34          179.92943492
   D35         -179.94530770
   D36          -90.84607581
   D37           51.51649909
   D38          -68.78905328
   D39           62.96638241
   D40         -177.00176907
   D41           60.99572439
   D42         -176.97043254
