%chk=2-18_8986_vol.chk
%mem=2GB
%nproc=2
#P M062X/6-31+G(d,p) volume

2-18

1 1
 C              
 O                  1            B1
 C                  2            B2    1            A1
 C                  3            B3    2            A2    1            D1    0
 C                  4            B4    3            A3    2            D2    0
 C                  5            B5    4            A4    3            D3    0
 N                  6            B6    5            A5    4            D4    0
 C                  7            B7    6            A6    5            D5    0
 C                  8            B8    7            A7    6            D6    0
 C                  9            B9    8            A8    7            D7    0
 C                 10           B10    9            A9    8            D8    0
 S                 11           B11   10           A10    9            D9    0
 C                 12           B12   11           A11   10           D10    0
 N                 13           B13   12           A12   11           D11    0
 C                 14           B14   13           A13   12           D12    0
 C                 15           B15   14           A14   13           D13    0
 C                 16           B16   15           A15   14           D14    0
 C                 17           B17   16           A16   15           D15    0
 C                 18           B18   17           A17   16           D16    0
 C                 19           B19   18           A18   17           D17    0
 C                 18           B20   17           A19   16           D18    0
 N                 21           B21   18           A20   17           D19    0
 C                 22           B22   21           A21   18           D20    0
 C                 17           B23   16           A22   15           D21    0
 C                 14           B24   13           A23   12           D22    0
 O                 13           B25   12           A24   11           D23    0
 C                  6           B26    5           A25    4           D24    0
 C                  3           B27    2           A26    1           D25    0
 H                  1           B28    2           A27    3           D26    0
 H                  1           B29    2           A28    3           D27    0
 H                  1           B30    2           A29    3           D28    0
 H                  4           B31    3           A30    2           D29    0
 H                  5           B32    4           A31    3           D30    0
 H                  8           B33    7           A32    6           D31    0
 H                  9           B34    8           A33    7           D32    0
 H                 11           B35   10           A34    9           D33    0
 H                 15           B36   14           A35   13           D34    0
 H                 16           B37   15           A36   14           D35    0
 H                 16           B38   15           A37   14           D36    0
 H                 17           B39   16           A38   15           D37    0
 H                 18           B40   17           A39   16           D38    0
 H                 19           B41   18           A40   17           D39    0
 H                 20           B42   19           A41   18           D40    0
 H                 20           B43   19           A42   18           D41    0
 H                 21           B44   18           A43   17           D42    0
 H                 21           B45   18           A44   17           D43    0
 H                 22           B46   21           A45   18           D44    0
 H                 23           B47   22           A46   21           D45    0
 H                 23           B48   22           A47   21           D46    0
 H                 23           B49   22           A48   21           D47    0
 H                 24           B50   17           A49   16           D48    0
 H                 24           B51   17           A50   16           D49    0
 H                 25           B52   14           A51   13           D50    0
 H                 25           B53   14           A52   13           D51    0
 H                 28           B54    3           A53    2           D52    0
 H                 22           B55   21           A54   18           D53    0

   B1             1.42067422
   B2             1.37458357
   B3             1.41222437
   B4             1.40307358
   B5             1.40670913
   B6             1.34684212
   B7             1.33810070
   B8             1.40287055
   B9             1.41777710
   B10            1.55040005
   B11            1.81774324
   B12            1.80098732
   B13            1.38678161
   B14            1.45582785
   B15            1.53753378
   B16            1.54433890
   B17            1.56973461
   B18            1.52640996
   B19            1.34282745
   B20            1.55896589
   B21            1.48039916
   B22            1.47668605
   B23            1.55058212
   B24            1.46601597
   B25            1.23295945
   B26            1.42865141
   B27            1.40757451
   B28            1.09070076
   B29            1.09095810
   B30            1.09114579
   B31            1.07885531
   B32            1.08070545
   B33            1.08142054
   B34            1.07240064
   B35            1.09207535
   B36            1.08736362
   B37            1.09100468
   B38            1.08006331
   B39            1.08767970
   B40            1.08957656
   B41            1.07985120
   B42            1.07764862
   B43            1.07956522
   B44            1.08538662
   B45            1.09122235
   B46            1.02695655
   B47            1.09015901
   B48            1.08777881
   B49            1.08865894
   B50            1.09200717
   B51            1.08757385
   B52            1.08963057
   B53            1.09027883
   B54            1.07851102
   B55            1.01927381
   A1           117.99374171
   A2           124.00851233
   A3           119.96031240
   A4           121.32092735
   A5           118.02948738
   A6           118.64085526
   A7           123.17794783
   A8           120.14115396
   A9           120.45139614
   A10          113.47758447
   A11           93.12528680
   A12          109.45409720
   A13          116.64259997
   A14          109.80903865
   A15          112.47423057
   A16          114.20598633
   A17          115.42835064
   A18          127.24907322
   A19          114.87829009
   A20          114.86924551
   A21          115.96139131
   A22          106.12245200
   A23          122.57440134
   A24          122.59826362
   A25          119.33264727
   A26          116.88190254
   A27          109.38865746
   A28          111.63010284
   A29          111.46583193
   A30          121.98257698
   A31          119.35230626
   A32          115.80861090
   A33          116.62465759
   A34          107.49051173
   A35          103.08167652
   A36          108.83493104
   A37          109.95157830
   A38          106.68007988
   A39          106.15494135
   A40          114.94221841
   A41          122.08219452
   A42          120.96455018
   A43          111.11902540
   A44          110.09732999
   A45          111.54694161
   A46          109.33492040
   A47          112.17720575
   A48          111.07365402
   A49          107.86539848
   A50          111.67486714
   A51          108.26530422
   A52          110.25467851
   A53          117.04703452
   A54          108.37802210
   D1             5.24703671
   D2           179.53522473
   D3             0.11716469
   D4           179.50954332
   D5           179.88821427
   D6            -1.27706074
   D7             1.46009204
   D8           176.93936311
   D9           120.19024528
   D10         -150.25605093
   D11           11.22153070
   D12            5.09193990
   D13         -147.48955379
   D14          -57.61625146
   D15          -69.69636043
   D16          175.83954190
   D17           29.13265998
   D18          -54.49795866
   D19          -67.64413586
   D20          -96.85918353
   D21           58.71939961
   D22          165.63557967
   D23         -171.99413060
   D24           -0.70307139
   D25         -175.03253021
   D26          177.60344970
   D27           58.83165223
   D28          -63.84143959
   D29           -0.94972358
   D30          179.09691384
   D31          178.30689366
   D32          179.99466337
   D33         -122.63866492
   D34           93.66063163
   D35           62.64015278
   D36          177.21360465
   D37          172.43525119
   D38           62.10811630
   D39         -151.45946920
   D40            0.45156159
   D41          179.90681637
   D42           53.43096674
   D43          168.64941340
   D44           28.11505466
   D45         -179.85160981
   D46           60.55782678
   D47          -61.32612598
   D48           66.25006859
   D49         -179.20094252
   D50          -85.63247260
   D51           31.43514112
   D52            1.88483538
   D53          146.40104851
