%chk=2-58_9896_vol.chk
%mem=2GB
%nproc=2
#P M062X/6-31+G(d,p) volume

2-58

-1 1
 O              
 C                  1            B1
 N                  2            B2    1            A1
 C                  3            B3    2            A2    1            D1    0
 C                  4            B4    3            A3    2            D2    0
 C                  5            B5    4            A4    3            D3    0
 O                  6            B6    5            A5    4            D4    0
 C                  7            B7    6            A6    5            D5    0
 C                  6            B8    5            A7    4            D6    0
 C                  9            B9    6            A8    5            D7    0
 O                 10           B10    9            A9    6            D8    0
 C                 11           B11   10           A10    9            D9    0
 C                 10           B12    9           A11    6           D10    0
 C                 13           B13   10           A12    9           D11    0
 C                  2           B14    1           A13    3           D12    0
 C                 15           B15    2           A14    1           D13    0
 C                 16           B16   15           A15    2           D14    0
 C                 17           B17   16           A16   15           D15    0
 O                 18           B18   17           A17   16           D16    0
 C                 18           B19   17           A18   16           D17    0
 O                 20           B20   18           A19   17           D18    0
 C                 20           B21   18           A20   17           D19    0
 C                 22           B22   20           A21   18           D20    0
 C                 23           B23   22           A22   20           D21    0
 C                 24           B24   23           A23   22           D22    0
 C                 25           B25   24           A24   23           D23    0
 C                 26           B26   25           A25   24           D24    0
 C                 27           B27   26           A26   25           D25    0
 C                 28           B28   27           A27   26           D26    0
 C                 29           B29   28           A28   27           D27    0
 O                 28           B30   27           A29   26           D28    0
 C                 28           B31   27           A30   26           D29    0
 C                 27           B32   26           A31   25           D30    0
 C                 17           B33   16           A32   15           D31    0
 O                 34           B34   17           A33   16           D32    0
 O                 34           B35   17           A34   16           D33    0
 C                 17           B36   16           A35   15           D34    0
 H                  3           B37    2           A36    1           D35    0
 H                  4           B38    3           A37    2           D36    0
 H                  4           B39    3           A38    2           D37    0
 H                  8           B40    7           A39    6           D38    0
 H                  8           B41    7           A40    6           D39    0
 H                  8           B42    7           A41    6           D40    0
 H                  9           B43    6           A42    5           D41    0
 H                 12           B44   11           A43   10           D42    0
 H                 12           B45   11           A44   10           D43    0
 H                 12           B46   11           A45   10           D44    0
 H                 13           B47   10           A46    9           D45    0
 H                 14           B48   13           A47   10           D46    0
 H                 15           B49    2           A48    1           D47    0
 H                 16           B50   15           A49    2           D48    0
 H                 18           B51   17           A50   16           D49    0
 H                 19           B52   18           A51   17           D50    0
 H                 20           B53   18           A52   17           D51    0
 H                 21           B54   20           A53   18           D52    0
 H                 22           B55   20           A54   18           D53    0
 H                 24           B56   23           A55   22           D54    0
 H                 26           B57   25           A56   24           D55    0
 H                 26           B58   25           A57   24           D56    0
 H                 29           B59   28           A58   27           D57    0
 H                 29           B60   28           A59   27           D58    0
 H                 30           B61   29           A60   28           D59    0
 H                 30           B62   29           A61   28           D60    0
 H                 31           B63   28           A62   27           D61    0
 H                 32           B64   28           A63   27           D62    0
 H                 32           B65   28           A64   27           D63    0
 H                 33           B66   27           A65   26           D64    0
 H                 33           B67   27           A66   26           D65    0
 H                 37           B68   17           A67   16           D66    0
 H                 37           B69   17           A68   16           D67    0
 H                 37           B70   17           A69   16           D68    0

   B1             1.23124279
   B2             1.33869715
   B3             1.46119585
   B4             1.52635248
   B5             1.41267463
   B6             1.37165311
   B7             1.41976365
   B8             1.41161774
   B9             1.40945301
   B10            1.37843424
   B11            1.42319369
   B12            1.41491439
   B13            1.40616575
   B14            1.54782913
   B15            1.56983441
   B16            1.57106908
   B17            1.57362420
   B18            1.41791875
   B19            1.55646143
   B20            1.41875272
   B21            1.52256423
   B22            1.34580574
   B23            1.51030311
   B24            1.54637483
   B25            1.54614949
   B26            1.51465435
   B27            1.51752125
   B28            1.54378421
   B29            1.54370674
   B30            1.41497908
   B31            1.52104185
   B32            1.34293485
   B33            1.56672088
   B34            1.24671621
   B35            1.25005343
   B36            1.55790261
   B37            1.01082499
   B38            1.08129530
   B39            1.09025432
   B40            1.08917818
   B41            1.09380745
   B42            1.09138930
   B43            1.07864981
   B44            1.08976209
   B45            1.09053314
   B46            1.09079487
   B47            1.08297447
   B48            1.07926037
   B49            1.09079416
   B50            1.09068181
   B51            1.09220580
   B52            0.94510547
   B53            1.09030642
   B54            0.94659033
   B55            1.07932012
   B56            1.09093931
   B57            1.08994472
   B58            1.09158985
   B59            1.09048744
   B60            1.09109619
   B61            1.08799813
   B62            1.09077519
   B63            0.94784054
   B64            1.09274126
   B65            1.08899514
   B66            1.08196413
   B67            1.08175332
   B68            1.08862348
   B69            1.08409839
   B70            1.09215115
   A1           120.81242110
   A2           122.64867998
   A3           114.41825284
   A4           121.26147213
   A5           120.79640885
   A6           112.72733583
   A7           119.80373977
   A8           121.25377456
   A9           117.19530918
   A10          118.05482363
   A11          118.80863850
   A12          119.96858510
   A13          119.59577276
   A14          114.73925890
   A15          119.56865236
   A16          109.51145304
   A17          110.07060829
   A18          115.89248422
   A19          111.52537642
   A20          113.21813711
   A21          123.55760684
   A22          128.38805926
   A23          102.97196880
   A24          110.66278306
   A25          104.44846830
   A26          108.19043084
   A27          113.08331277
   A28          112.48226769
   A29          112.38129389
   A30          102.10900300
   A31          124.96196892
   A32          112.60912204
   A33          119.11686639
   A34          120.16250386
   A35          108.64556613
   A36          120.03177873
   A37          107.64543930
   A38          109.90543517
   A39          109.82733116
   A40          111.36418866
   A41          111.28720698
   A42          119.49214056
   A43          109.12616646
   A44          111.47130752
   A45          111.77770449
   A46          121.87958228
   A47          118.70406039
   A48          103.65433883
   A49          107.45016624
   A50          109.49443362
   A51          108.41130016
   A52          109.03614643
   A53          107.74447235
   A54          115.97706981
   A55          103.76577836
   A56          112.70083808
   A57          111.79323958
   A58          110.28115209
   A59          109.39644287
   A60          111.16754761
   A61          106.78544749
   A62          107.74830463
   A63          110.63372292
   A64          112.51442378
   A65          121.14616730
   A66          121.98679506
   A67          112.60726090
   A68          111.29828344
   A69          112.39769274
   D1             1.82246732
   D2            73.89030348
   D3          -137.73958727
   D4             3.43669003
   D5           -96.18949555
   D6          -176.95452748
   D7             0.89317117
   D8           178.89692042
   D9          -172.15468058
   D10           -0.96172500
   D11            0.33833910
   D12          177.67624667
   D13          110.82070536
   D14          -96.25211469
   D15         -167.02668743
   D16          -69.62197382
   D17           51.30115753
   D18           93.56390118
   D19          -32.08830050
   D20            3.54041526
   D21          179.82475091
   D22         -137.34986936
   D23         -165.82530133
   D24          -83.75256260
   D25           -6.16053039
   D26           92.17456575
   D27          -51.80696176
   D28         -141.86898629
   D29          -22.73631730
   D30          179.30859374
   D31          -47.28815213
   D32          128.65740605
   D33          -50.93632602
   D34           74.16031234
   D35         -179.04952691
   D36         -167.68755120
   D37          -52.70814286
   D38          179.03505595
   D39           59.94402985
   D40          -61.35249625
   D41          179.69873898
   D42          176.06915188
   D43           57.36843726
   D44          -65.12823320
   D45          179.55558407
   D46          176.70018071
   D47           -7.38503748
   D48           25.59544569
   D49          175.31083341
   D50          -58.78443958
   D51         -150.89334008
   D52          178.05515893
   D53         -174.81302439
   D54          110.02911003
   D55           36.62661812
   D56          159.81404473
   D57           70.52876620
   D58         -173.12955796
   D59         -163.83973711
   D60           83.07699061
   D61          -64.69887308
   D62          -74.56960323
   D63          164.98288720
   D64           -3.24197660
   D65          177.15741668
   D66           61.44425199
   D67          -55.81965642
   D68         -177.69601527
