%chk=3-54_11009_vol.chk
%mem=2GB
%nproc=2
#P M062X/6-31+G(d,p) volume

3-54

0 1
 O              
 C                  1            B1
 O                  2            B2    1            A1
 C                  2            B3    1            A2    3            D1    0
 C                  4            B4    2            A3    1            D2    0
 C                  5            B5    4            A4    2            D3    0
 C                  6            B6    5            A5    4            D4    0
 C                  7            B7    6            A6    5            D5    0
 N                  8            B8    7            A7    6            D6    0
 C                  8            B9    7            A8    6            D7    0
 C                 10           B10    8            A9    7            D8    0
 C                 11           B11   10           A10    8            D9    0
 C                 11           B12   10           A11    8           D10    0
 C                 13           B13   11           A12   10           D11    0
 C                 14           B14   13           A13   11           D12    0
 C                 10           B15    8           A14    7           D13    0
 C                 16           B16   10           A15    8           D14    0
 C                 17           B17   16           A16   10           D15    0
 C                 18           B18   17           A17   16           D16    0
 C                  4           B19    2           A18    1           D17    0
 O                  5           B20    4           A19    2           D18    0
 H                  6           B21    5           A20    4           D19    0
 H                  6           B22    5           A21    4           D20    0
 H                  8           B23    7           A22    6           D21    0
 H                  9           B24    8           A23    7           D22    0
 H                  9           B25    8           A24    7           D23    0
 H                 12           B26   11           A25   10           D24    0
 H                 12           B27   11           A26   10           D25    0
 H                 12           B28   11           A27   10           D26    0
 H                 13           B29   11           A28   10           D27    0
 H                 14           B30   13           A29   11           D28    0
 H                 15           B31   14           A30   13           D29    0
 H                 17           B32   16           A31   10           D30    0
 H                 18           B33   17           A32   16           D31    0
 H                 18           B34   17           A33   16           D32    0
 H                 19           B35   18           A34   17           D33    0
 H                 19           B36   18           A35   17           D34    0
 H                 20           B37    4           A36    2           D35    0
 H                 20           B38    4           A37    2           D36    0
 H                  9           B39    8           A38    7           D37    0

   B1             1.25316778
   B2             1.25095805
   B3             1.54396972
   B4             1.54176044
   B5             1.51826956
   B6             1.53371647
   B7             1.56219848
   B8             1.47487835
   B9             1.51182932
   B10            1.41288341
   B11            1.51365690
   B12            1.41455003
   B13            1.41237726
   B14            1.40890109
   B15            1.39298359
   B16            1.50190619
   B17            1.54426295
   B18            1.54934590
   B19            1.54128135
   B20            1.23151105
   B21            1.09078264
   B22            1.08515447
   B23            1.09106002
   B24            1.00750045
   B25            1.01095991
   B26            1.09293724
   B27            1.09148674
   B28            1.09024457
   B29            1.07983114
   B30            1.08057679
   B31            1.07809611
   B32            1.08941515
   B33            1.09204900
   B34            1.09104407
   B35            1.09281432
   B36            1.08439996
   B37            1.09303442
   B38            1.09190799
   B39            1.01073756
   A1           124.38298535
   A2           117.61058615
   A3           110.94638107
   A4           110.54492300
   A5           102.42971870
   A6           112.98957330
   A7           112.07395222
   A8           104.53603974
   A9           127.90346000
   A10          121.91217721
   A11          118.36638223
   A12          120.67927278
   A13          120.27147117
   A14          111.53461242
   A15          112.10080561
   A16          115.56723738
   A17          111.65464618
   A18          113.71919719
   A19          126.89087963
   A20          112.18137580
   A21          107.85742171
   A22          111.10418661
   A23          109.52685687
   A24          109.10607555
   A25          110.30761210
   A26          109.79516754
   A27          110.99720680
   A28          120.13838201
   A29          119.88640080
   A30          120.71543736
   A31          105.22236503
   A32          110.93294827
   A33          108.93712385
   A34          108.41844733
   A35          109.32414489
   A36          111.46242907
   A37          112.79834374
   A38          109.20394427
   D1          -177.93318143
   D2            86.65332209
   D3           142.80388085
   D4             7.07557557
   D5          -159.38964375
   D6           114.18950247
   D7          -125.36463370
   D8           179.00151259
   D9            -1.16641474
   D10          179.44857019
   D11            0.80720276
   D12            0.85209538
   D13            0.75010328
   D14            4.54297419
   D15         -133.92567438
   D16          165.24170159
   D17         -162.91997443
   D18          -37.04498982
   D19          129.54418624
   D20         -110.28007170
   D21           -8.51421734
   D22          177.21279213
   D23           57.38635263
   D24         -157.36890345
   D25           82.85347164
   D26          -38.07070430
   D27         -179.71521160
   D28          179.56064211
   D29          177.78599598
   D30          107.66300216
   D31          -70.49780547
   D32           45.23762703
   D33         -160.70670989
   D34           84.77043836
   D35          -43.30191532
   D36           76.65785149
   D37          -61.72992061
